
******************************************************************************
This program contains Ipopt, a library for large-scale nonlinear optimization.
 Ipopt is released as open source code under the Eclipse Public License (EPL).
         For more information visit http://projects.coin-or.org/Ipopt
******************************************************************************

This is Ipopt version 3.12.6, running with linear solver ma57.

Number of nonzeros in equality constraint Jacobian...:  1572491
Number of nonzeros in inequality constraint Jacobian.:        0
Number of nonzeros in Lagrangian Hessian.............:     8743

Total number of variables............................:     3749
                     variables with only lower bounds:     1249
                variables with lower and upper bounds:     1249
                     variables with only upper bounds:        0
Total number of equality constraints.................:     2500
Total number of inequality constraints...............:        0
        inequality constraints with only lower bounds:        0
   inequality constraints with lower and upper bounds:        0
        inequality constraints with only upper bounds:        0

iter    objective    inf_pr   inf_du lg(mu)  ||d||  lg(rg) alpha_du alpha_pr  ls
   0  4.0580149e+00 1.86e+02 9.90e-01  -1.0 0.00e+00    -  0.00e+00 0.00e+00   0
   1  4.0513992e+00 1.86e+02 2.94e+00  -1.0 1.89e+01    -  5.27e-04 5.79e-04h  1
   2  4.0624086e+00 1.86e+02 1.28e+01  -1.0 1.36e+01    -  6.72e-03 5.84e-04h  1
   3  3.9967672e+00 1.86e+02 1.28e+02  -1.0 2.02e+01    -  8.04e-04 1.08e-04h  1
   4  3.4384281e+00 1.86e+02 8.48e+01  -1.0 3.98e+01    -  4.53e-04 6.10e-04h  1
   5  3.0362936e+00 1.86e+02 1.61e+02  -1.0 1.61e+02    -  5.52e-04 3.69e-04h  1
   6  2.7162494e+00 1.86e+02 2.74e+02  -1.0 3.75e+02    -  6.90e-04 4.05e-04h  2
   7  2.6269086e+00 1.86e+02 5.38e+02  -1.0 6.89e+02    -  9.07e-04 1.66e-04h  3
   8  2.5009669e+00 1.86e+02 1.43e+03  -1.0 6.95e+02    -  1.64e-03 1.55e-04h  3
   9  2.1992186e+00 1.86e+02 1.19e+03  -1.0 5.33e+02   0.0 6.49e-05 2.30e-04h  1
iter    objective    inf_pr   inf_du lg(mu)  ||d||  lg(rg) alpha_du alpha_pr  ls
  10  2.1258056e+00 1.86e+02 3.13e+03  -1.0 9.27e+02   0.4 1.91e-03 1.00e-04h  3
  11  9.4070182e-01 1.85e+02 2.92e+03  -1.0 5.43e+02   0.9 6.70e-04 7.25e-04h  1
  12  5.7696479e-01 1.85e+02 3.52e+03  -1.0 2.10e+02   1.3 1.72e-04 1.44e-04h  1
  13  3.8306649e-01 1.85e+02 6.22e+03  -1.0 1.45e+02   1.7 1.25e-04 7.39e-05h  1
  14  2.4872386e-01 1.85e+02 6.20e+01  -1.0 1.37e+02   2.1 2.33e-06 5.05e-05h  1
  15  1.8489660e-01 1.85e+02 6.15e+02  -1.0 3.21e+02   2.6 2.07e-05 2.41e-05h  1
  16  1.4047346e-01 1.85e+02 4.03e+04  -1.0 1.27e+02   3.9 1.13e-04 1.76e-05h  1
  17  7.0533454e-02 1.85e+02 2.01e+04  -1.0 1.43e+03   3.4 1.26e-05 4.62e-05h  1
  18  4.8730848e-02 1.85e+02 1.28e+05  -1.0 2.12e+03   2.9 1.77e-04 2.86e-05h  1
  19  4.6283638e-02 1.85e+02 1.33e+05  -1.0 2.83e+03   2.5 8.71e-05 6.27e-05h  1
iter    objective    inf_pr   inf_du lg(mu)  ||d||  lg(rg) alpha_du alpha_pr  ls
  20  3.9877122e-02 1.85e+02 2.07e+05  -1.0 3.04e+03   2.9 1.18e-04 3.44e-05h  1
  21  2.7924762e-02 1.85e+02 5.27e+05  -1.0 3.52e+03   3.3 1.22e-04 2.84e-05h  1
  22  2.7579522e-02 1.85e+02 5.13e+05  -1.0 3.93e+03   2.8 1.38e-05 2.94e-05h  1
  23r 2.7579522e-02 1.85e+02 1.00e+03   0.4 0.00e+00   3.3 0.00e+00 4.63e-07R  5
  24r 2.7933259e-02 1.82e+02 1.00e+03   0.4 2.34e+03    -  2.98e-04 7.95e-05f  1
  25r 2.8662188e-02 1.75e+02 1.01e+03   0.4 1.66e+03    -  2.91e-04 1.71e-04f  1
  26r 2.8662188e-02 1.75e+02 9.99e+02   0.3 0.00e+00    -  0.00e+00 1.07e-07R  2
  27r 6.7547475e-01 1.47e+02 9.98e+02   0.3 1.74e+03    -  9.44e-04 7.29e-04f  1
  28  6.8178924e-01 1.47e+02 6.35e+00  -1.0 2.29e+01    -  1.19e-03 1.61e-04f  1
  29  6.7737081e-01 1.47e+02 7.85e+02  -1.0 2.14e+02    -  1.40e-03 1.50e-05h  1
iter    objective    inf_pr   inf_du lg(mu)  ||d||  lg(rg) alpha_du alpha_pr  ls
  30  6.0199460e-01 1.47e+02 1.01e+03  -1.0 8.25e+02    -  1.27e-04 6.22e-05h  1
  31r 6.0199460e-01 1.47e+02 9.99e+02   0.3 0.00e+00    -  0.00e+00 4.50e-07R  5
  32r 6.7817221e-01 1.42e+02 1.03e+03   0.3 9.39e+02    -  7.54e-04 1.80e-04f  1
  33r 1.6659640e+00 9.98e+02 9.98e+02   0.3 5.66e+02    -  2.67e-04 1.76e-03f  1
  34r 1.8473695e+00 9.97e+02 9.97e+02   0.3 9.80e+00   2.0 1.39e-03 4.45e-04f  1
  35r 2.4147883e+00 9.98e+02 9.97e+02   0.3 4.27e+01   1.5 1.63e-03 1.30e-03f  1
  36r 4.3568945e+00 9.97e+02 1.09e+03   0.3 1.28e+01   1.9 8.57e-03 5.08e-03f  1
  37r 5.5837760e+00 9.92e+02 1.02e+03   0.3 4.58e+00   2.4 8.61e-04 5.64e-03f  1
  38r 5.7128936e+00 9.91e+02 1.39e+03   0.3 1.72e+00   2.8 1.26e-02 1.17e-03f  1
  39r 6.4714623e+00 9.87e+02 1.34e+03   0.3 7.67e+00   2.3 4.07e-04 4.80e-03f  1
iter    objective    inf_pr   inf_du lg(mu)  ||d||  lg(rg) alpha_du alpha_pr  ls
  40r 6.5395743e+00 9.86e+02 1.50e+03   0.3 1.88e+00   2.7 6.11e-03 7.30e-04f  1
  41r 6.9933444e+00 9.76e+02 1.43e+03   0.3 7.56e-01   3.2 7.53e-03 1.01e-02f  1
  42r 7.2739027e+00 9.73e+02 1.43e+03   0.3 2.25e+00   2.7 1.29e-03 3.34e-03f  1
  43r 7.5138897e+00 9.68e+02 1.41e+03   0.3 9.02e-01   3.1 2.93e-02 5.57e-03f  1
  44r 7.8548037e+00 9.63e+02 1.31e+03   0.3 3.47e+00   2.6 1.37e-03 4.76e-03f  1
  45r 8.1363455e+00 9.57e+02 1.35e+03   0.3 9.28e-01   3.1 9.33e-03 7.07e-03f  1
  46r 8.5503171e+00 9.51e+02 1.33e+03   0.3 2.16e+01   2.6 1.42e-03 5.58e-03f  1
  47r 8.6103972e+00 9.50e+02 1.63e+03   0.3 1.08e+00   3.0 1.34e-02 1.47e-03f  1
  48r 9.1049588e+00 9.25e+02 1.64e+03   0.3 4.64e-01   3.4 3.22e-03 2.65e-02f  1
  49r 9.1455988e+00 9.24e+02 1.93e+03   0.3 2.50e+00   3.0 1.48e-02 9.69e-04f  1
iter    objective    inf_pr   inf_du lg(mu)  ||d||  lg(rg) alpha_du alpha_pr  ls
  50r 9.6009287e+00 9.02e+02 2.00e+03   0.3 5.01e-01   3.4 2.79e-03 2.40e-02f  1
Reallocating memory for MA57: lfact (15828147)
  51r 9.6119170e+00 9.01e+02 2.26e+03   0.3 2.74e-01   3.8 2.40e-02 1.41e-03f  1
  52r 9.8985925e+00 8.87e+02 2.32e+03   0.3 5.41e-01   3.3 2.55e-03 1.51e-02f  1
  53r 1.0024923e+01 8.74e+02 2.27e+03   0.3 2.68e-01   3.8 4.30e-02 1.53e-02f  1
  54r 1.0105948e+01 8.70e+02 2.33e+03   0.3 5.18e-01   3.3 7.64e-03 4.15e-03f  1
  55r 1.0564509e+01 8.24e+02 3.30e+03   0.3 2.61e-01   3.7 9.22e-03 5.33e-02f  1
  56r 1.0657231e+01 8.20e+02 3.24e+03   0.3 7.59e-01   3.2 3.99e-02 4.58e-03f  1
  57r 1.1436258e+01 7.49e+02 6.83e+03   0.3 2.43e-01   3.7 9.32e-03 8.59e-02f  1
  58r 1.1447663e+01 7.46e+02 6.78e+03   0.3 2.38e-01   4.1 2.44e-02 3.41e-03f  1
  59r 1.1655063e+01 7.29e+02 6.65e+03   0.3 2.96e-01   3.6 7.57e-03 2.33e-02f  1
iter    objective    inf_pr   inf_du lg(mu)  ||d||  lg(rg) alpha_du alpha_pr  ls
  60r 1.1757915e+01 7.08e+02 6.42e+03   0.3 2.31e-01   4.0 5.57e-02 2.81e-02f  1
  61r 1.1836419e+01 7.03e+02 6.36e+03   0.3 2.80e-01   3.6 1.34e-02 8.13e-03f  1
  62r 1.2088475e+01 6.57e+02 6.01e+03   0.3 2.23e-01   4.0 1.85e-01 6.57e-02f  1
  63r 1.2158480e+01 6.52e+02 5.97e+03   0.3 3.15e-01   3.5 1.19e-02 7.26e-03f  1
  64r 1.2337230e+01 6.23e+02 5.76e+03   0.3 2.06e-01   3.9 1.68e-01 4.45e-02f  1
  65r 1.2509158e+01 6.12e+02 5.67e+03   0.3 4.08e-01   3.5 1.60e-02 1.76e-02f  1
  66r 1.2739537e+01 5.78e+02 5.42e+03   0.3 1.93e-01   3.9 1.51e-01 5.46e-02f  1
  67r 1.3110128e+01 5.58e+02 5.26e+03   0.3 8.54e-01   3.4 6.84e-03 3.45e-02f  1
  68r 1.3182572e+01 5.49e+02 5.19e+03   0.3 1.74e-01   3.8 1.85e-02 1.56e-02f  1
  69r 1.3349157e+01 4.98e+02 4.84e+03   0.3 1.83e-01   4.3 1.30e-01 9.36e-02f  1
iter    objective    inf_pr   inf_du lg(mu)  ||d||  lg(rg) alpha_du alpha_pr  ls
  70r 1.3563006e+01 4.77e+02 4.66e+03   0.3 1.60e-01   3.8 1.64e-02 4.35e-02f  1
  71r 1.3659879e+01 4.53e+02 4.49e+03   0.3 1.61e-01   4.2 1.56e-01 4.99e-02f  1
  72r 1.3909395e+01 4.31e+02 4.32e+03   0.3 1.83e-01   3.7 8.16e-02 4.75e-02f  1
  73r 1.4142507e+01 3.85e+02 3.97e+03   0.3 1.46e-01   4.2 2.96e-02 1.08e-01f  1
  74r 1.4279501e+01 3.76e+02 3.89e+03   0.3 2.21e-01   3.7 1.93e-02 2.34e-02f  1
  75r 1.4423080e+01 3.53e+02 3.72e+03   0.3 1.28e-01   4.1 1.80e-01 6.10e-02f  1
  76r 1.4704581e+01 3.37e+02 3.59e+03   0.3 3.29e-01   3.6 1.50e-02 4.49e-02f  1
  77r 1.4953716e+01 3.05e+02 3.32e+03   0.3 1.14e-01   4.1 3.32e-02 9.56e-02f  1
  78r 1.5085261e+01 2.99e+02 3.27e+03   0.3 5.48e-01   3.6 1.96e-02 1.87e-02f  1
  79r 1.5238963e+01 2.83e+02 3.15e+03   0.3 1.00e-01   4.0 1.68e-01 5.40e-02f  1
iter    objective    inf_pr   inf_du lg(mu)  ||d||  lg(rg) alpha_du alpha_pr  ls
  80r 1.5545325e+01 2.71e+02 3.04e+03   0.3 2.85e-01   3.5 1.46e-02 4.21e-02f  1
  81r 1.5799481e+01 2.49e+02 2.85e+03   0.3 1.07e-01   4.0 3.19e-02 8.20e-02f  1
  82r 1.6030421e+01 2.41e+02 2.78e+03   0.3 3.22e-01   3.5 2.02e-02 2.96e-02f  1
  83r 1.6140497e+01 2.33e+02 2.71e+03   0.3 1.20e-01   3.9 1.24e-01 3.29e-02f  1
  84r 1.6401153e+01 2.26e+02 2.64e+03   0.3 3.60e-01   3.4 6.09e-02 3.16e-02f  1
  85r 1.6639781e+01 2.11e+02 2.52e+03   0.3 1.35e-01   3.9 3.02e-02 6.45e-02f  1
  86r 1.7041030e+01 2.02e+02 2.42e+03   0.3 4.53e-01   3.4 2.30e-02 4.38e-02f  1
  87r 1.7320751e+01 1.88e+02 2.29e+03   0.3 1.52e-01   3.8 3.28e-02 6.86e-02f  1
  88r 1.7882954e+01 1.77e+02 2.18e+03   0.3 5.60e-01   3.3 2.61e-02 5.63e-02f  1
  89r 1.8225180e+01 1.63e+02 2.11e+03   0.3 1.71e-01   3.8 3.38e-02 7.67e-02f  1
iter    objective    inf_pr   inf_du lg(mu)  ||d||  lg(rg) alpha_du alpha_pr  ls
  90r 1.9004705e+01 1.51e+02 2.25e+03   0.3 6.74e-01   3.3 3.17e-02 7.20e-02f  1
  91r 1.9457816e+01 1.37e+02 2.81e+03   0.3 1.92e-01   3.7 3.92e-02 9.27e-02f  1

Number of Iterations....: 91

                                   (scaled)                 (unscaled)
Objective...............:   1.9457815528621900e+01    1.9457815528621900e+01
Dual infeasibility......:   2.8133915622838917e+03    2.8133915622838917e+03
Constraint violation....:   4.4170330827927664e+00    1.3690805890272298e+02
Complementarity.........:   2.4508779674520587e+00    2.4508779674520587e+00
Overall NLP error.......:   2.2483996757346526e+03    2.8133915622838917e+03


Number of objective function evaluations             = 115
Number of objective gradient evaluations             = 32
Number of equality constraint evaluations            = 115
Number of inequality constraint evaluations          = 0
Number of equality constraint Jacobian evaluations   = 95
Number of inequality constraint Jacobian evaluations = 0
Number of Lagrangian Hessian evaluations             = 91
Total CPU secs in IPOPT (w/o function evaluations)   =    297.657
Total CPU secs in NLP function evaluations           =      2.987

EXIT: Maximum CPU time exceeded.

************************ CUTEst statistics ************************


 Package used            :  IPOPT
 Problem                 :  LUBRIF    
 # variables             =            3751
 # constraints           =            2500
 # objective functions   =        0.1480000E+03
 # objective gradients   =        0.3300000E+02
 # objective Hessians    =        0.8900000E+02
 # Hessian-vector prdct  =        0.0000000E+00
 # constraints functions =        0.2120000E+03
 # constraints gradients =        0.9700000E+02
 # constraints Hessians  =        0.8900000E+02
 Exit code               =              -4
 Final f                 =   0.0000000E+00
 Set up time             =            0.93 seconds
 Solve time              =          519.12 seconds


******************************************************************

System Time =     192.9940032959 s.
